6090216839216632941505,5,1,2,06,8,1,2,014,8,1,2,013,9,1,2,012,4,1,2,014,10,1,2,04,2,1,2,012,9,1,2,01,8,1,2,06,11,1,2,02,2,1,2,011,9,1,2,015,2,1,2,01,14,1,2,05,14,1,2,02,6,1,2,06,2,1,2,015,4,1,2,06,7,1,2,03,4,1,2,014,11,1,2,09,11,1,2,012,14,1,2,03,9,1,2,04,2,1,2,011,14,1,2,06,2,1,2,010,12,1,2,012,4,1,2,01,8,1,2,04,3,1,2,08,3,1,2,011,15,1,2,014,8,1,2,03,11,1,2,011,4,1,2,06,4,1,2,02,8,1,2,01,1,1,2,010,11,1,2,011,15,1,2,010,4,1,2,07,12,1,2,02,12,1,2,04,11,1,2,09,10,1,2,010,10,1,2,012,14,1,2,011,2,1,2,07,5,1,2,0